\ SCIP STATISTICS
\   Problem name     : SetCover-200-200
\   Variables        : 200 (200 binary, 0 integer, 0 implicit integer, 0 continuous)
\   Constraints      : 200
Minimize
 Obj: +24 x0 +86 x1 +87 x2 +48 x3 +77 x4 +100 x5 +20 x6 +56 x7 +19 x8 +66 x9 +68 x10 +34 x11 +32 x12 +17 x13
      +40 x14 +63 x15 +37 x16 +47 x17 +53 x18 +32 x19 +59 x20 +85 x21 +86 x22 +68 x23 +44 x24 +5 x25 +98 x26
      +34 x27 +7 x28 +34 x29 +33 x30 +16 x31 +19 x32 +92 x33 +68 x34 +66 x35 +39 x36 +31 x37 +16 x38 +65 x39
      +21 x40 +35 x41 +8 x42 +50 x43 +14 x44 +48 x45 +57 x46 +20 x47 +68 x48 +58 x49 +29 x50 +39 x51 +31 x52
      +84 x53 +71 x54 +1 x55 +80 x56 +27 x57 +77 x58 +71 x59 +77 x60 +8 x61 +60 x62 +33 x63 +22 x64 +13 x65
      +73 x66 +71 x67 +75 x68 +35 x69 +91 x70 +2 x71 +90 x72 +29 x73 +3 x74 +47 x75 +66 x76 +64 x77 +36 x78
      +43 x79 +97 x80 +39 x81 +75 x82 +30 x83 +54 x84 +43 x85 +72 x86 +79 x87 +40 x88 +88 x89 +15 x90
      +57 x91 +55 x92 +51 x93 +52 x94 +43 x95 +75 x96 +70 x97 +99 x98 +18 x99 +29 x100 +93 x101 +39 x102
      +22 x103 +5 x104 +3 x105 +74 x106 +5 x107 +44 x108 +75 x109 +3 x110 +27 x111 +100 x112 +34 x113
      +11 x114 +33 x115 +100 x116 +58 x117 +96 x118 +20 x119 +52 x120 +33 x121 +71 x122 +92 x123 +45 x124
      +42 x125 +53 x126 +17 x127 +37 x128 +41 x129 +17 x130 +41 x131 +70 x132 +4 x133 +9 x134 +32 x135
      +55 x136 +43 x137 +46 x138 +15 x139 +85 x140 +98 x141 +39 x142 +74 x143 +69 x144 +62 x145 +12 x146
      +4 x147 +74 x148 +85 x149 +4 x150 +8 x151 +13 x152 +56 x153 +38 x154 +13 x155 +96 x156 +39 x157
      +61 x158 +7 x159 +39 x160 +20 x161 +31 x162 +69 x163 +75 x164 +18 x165 +91 x166 +76 x167 +97 x168
      +36 x169 +2 x170 +91 x171 +16 x172 +38 x173 +51 x174 +79 x175 +2 x176 +26 x177 +25 x178 +4 x179
      +62 x180 +34 x181 +65 x182 +72 x183 +51 x184 +62 x185 +67 x186 +33 x187 +95 x188 +70 x189 +83 x190
      +90 x191 +45 x192 +76 x193 +4 x194 +27 x195 +95 x196 +53 x197 +54 x198 +80 x199
Subject to
 c0: +1 x6 +1 x19 +1 x52 +1 x53 +1 x70 +1 x83 +1 x90 +1 x99 +1 x123 +1 x126 +1 x133 +1 x141 +1 x149 +1 x167
  +1 x171 +1 x174 +1 x180 +1 x197 >= +1
 c1: +1 x3 +1 x19 +1 x32 +1 x54 +1 x67 +1 x68 +1 x69 +1 x72 +1 x93 +1 x95 +1 x107 +1 x120 +1 x131 +1 x137
  +1 x154 +1 x186 >= +1
 c2: +1 x1 +1 x17 +1 x18 +1 x48 +1 x49 +1 x66 +1 x87 +1 x96 +1 x101 +1 x112 +1 x117 +1 x128 +1 x129 +1 x150
  +1 x151 +1 x155 +1 x163 +1 x167 +1 x176 +1 x193 +1 x198 >= +1
 c3: +1 x6 +1 x12 +1 x16 +1 x29 +1 x41 +1 x75 +1 x76 +1 x80 +1 x89 +1 x90 +1 x94 +1 x96 +1 x128 +1 x131
  +1 x133 +1 x173 +1 x181 +1 x197 >= +1
 c4: +1 x1 +1 x15 +1 x33 +1 x41 +1 x66 +1 x69 +1 x70 +1 x82 +1 x92 +1 x93 +1 x100 +1 x108 +1 x110 +1 x118
  +1 x132 +1 x135 +1 x149 +1 x164 +1 x178 +1 x179 +1 x192 +1 x196 >= +1
 c5: +1 x0 +1 x35 +1 x36 +1 x44 +1 x64 +1 x68 +1 x76 +1 x97 +1 x106 +1 x112 +1 x130 +1 x138 +1 x140 +1 x168
  +1 x172 +1 x189 +1 x190 +1 x197 >= +1
 c6: +1 x8 +1 x27 +1 x38 +1 x55 +1 x84 +1 x94 +1 x99 +1 x101 +1 x124 +1 x128 +1 x133 +1 x137 +1 x138 +1 x140
  +1 x141 +1 x148 +1 x168 +1 x173 +1 x182 >= +1
 c7: +1 x7 +1 x30 +1 x50 +1 x61 +1 x68 +1 x82 +1 x92 +1 x93 +1 x103 +1 x108 +1 x110 +1 x111 +1 x116 +1 x122
  +1 x125 +1 x131 +1 x134 +1 x138 +1 x142 +1 x158 +1 x159 +1 x165 +1 x196 >= +1
 c8: +1 x9 +1 x22 +1 x25 +1 x35 +1 x44 +1 x46 +1 x66 +1 x76 +1 x78 +1 x86 +1 x89 +1 x96 +1 x99 +1 x101
  +1 x112 +1 x125 +1 x140 +1 x150 +1 x164 +1 x166 +1 x173 +1 x198 >= +1
 c9: +1 x4 +1 x28 +1 x40 +1 x52 +1 x66 +1 x68 +1 x74 +1 x81 +1 x91 +1 x108 +1 x110 +1 x129 +1 x138 +1 x141
  +1 x142 +1 x157 +1 x160 +1 x161 +1 x164 +1 x178 +1 x181 >= +1
 c10: +1 x8 +1 x43 +1 x50 +1 x68 +1 x70 +1 x72 +1 x73 +1 x85 +1 x87 +1 x93 +1 x97 +1 x110 +1 x113 +1 x120
  +1 x136 +1 x151 +1 x170 +1 x171 +1 x174 +1 x177 +1 x179 +1 x183 +1 x184 +1 x189 +1 x195 >= +1
 c11: +1 x2 +1 x24 +1 x29 +1 x43 +1 x79 +1 x81 +1 x94 +1 x106 +1 x108 +1 x114 +1 x120 +1 x122 +1 x123
  +1 x126 +1 x133 +1 x146 +1 x176 +1 x181 +1 x182 +1 x184 +1 x198 >= +1
 c12: +1 x10 +1 x15 +1 x23 +1 x24 +1 x32 +1 x71 +1 x74 +1 x84 +1 x123 +1 x130 +1 x134 +1 x158 +1 x178
  +1 x180 +1 x192 +1 x194 +1 x197 >= +1
 c13: +1 x2 +1 x10 +1 x33 +1 x39 +1 x50 +1 x51 +1 x52 +1 x80 +1 x81 +1 x89 +1 x112 +1 x113 +1 x126 +1 x129
  +1 x161 +1 x162 +1 x164 +1 x173 +1 x178 +1 x190 >= +1
 c14: +1 x6 +1 x13 +1 x14 +1 x30 +1 x33 +1 x41 +1 x44 +1 x49 +1 x61 +1 x62 +1 x79 +1 x83 +1 x93 +1 x94
  +1 x100 +1 x105 +1 x121 +1 x124 +1 x125 +1 x129 +1 x137 +1 x143 +1 x146 +1 x151 +1 x174 +1 x188 >= +1
 c15: +1 x8 +1 x35 +1 x38 +1 x47 +1 x62 +1 x70 +1 x73 +1 x82 +1 x86 +1 x87 +1 x91 +1 x95 +1 x122 +1 x126
  +1 x133 +1 x149 +1 x157 +1 x173 >= +1
 c16: +1 x4 +1 x10 +1 x12 +1 x25 +1 x42 +1 x59 +1 x72 +1 x77 +1 x112 +1 x129 +1 x133 +1 x137 +1 x138 +1 x139
  +1 x169 +1 x181 +1 x195 +1 x198 +1 x199 >= +1
 c17: +1 x4 +1 x18 +1 x27 +1 x39 +1 x65 +1 x75 +1 x79 +1 x82 +1 x101 +1 x103 +1 x110 +1 x111 +1 x138 +1 x140
  +1 x145 +1 x156 +1 x160 +1 x167 +1 x169 +1 x179 +1 x187 +1 x197 +1 x198 >= +1
 c18: +1 x1 +1 x21 +1 x40 +1 x43 +1 x44 +1 x47 +1 x63 +1 x65 +1 x68 +1 x73 +1 x75 +1 x86 +1 x89 +1 x103
  +1 x120 +1 x150 +1 x156 +1 x167 +1 x174 +1 x179 >= +1
 c19: +1 x9 +1 x29 +1 x38 +1 x42 +1 x50 +1 x61 +1 x73 +1 x89 +1 x97 +1 x100 +1 x103 +1 x109 +1 x110 +1 x113
  +1 x116 +1 x118 +1 x135 +1 x158 +1 x161 +1 x176 +1 x179 +1 x183 +1 x186 +1 x191 >= +1
 c20: +1 x3 +1 x12 +1 x16 +1 x22 +1 x30 +1 x37 +1 x39 +1 x43 +1 x52 +1 x62 +1 x72 +1 x80 +1 x90 +1 x93
  +1 x96 +1 x163 +1 x170 +1 x171 >= +1
 c21: +1 x10 +1 x35 +1 x41 +1 x45 +1 x46 +1 x115 +1 x123 +1 x146 +1 x152 +1 x153 >= +1
 c22: +1 x10 +1 x13 +1 x29 +1 x35 +1 x39 +1 x42 +1 x46 +1 x51 +1 x54 +1 x55 +1 x102 +1 x119 +1 x121 +1 x147
  +1 x160 +1 x161 +1 x191 +1 x195 +1 x198 >= +1
 c23: +1 x5 +1 x27 +1 x50 +1 x79 +1 x102 +1 x103 +1 x110 +1 x137 +1 x156 +1 x158 +1 x168 +1 x191 +1 x192
  >= +1
 c24: +1 x7 +1 x19 +1 x21 +1 x27 +1 x41 +1 x44 +1 x45 +1 x47 +1 x65 +1 x66 +1 x68 +1 x82 +1 x90 +1 x93
  +1 x104 +1 x107 +1 x111 +1 x120 +1 x126 +1 x133 +1 x142 +1 x143 +1 x157 +1 x158 +1 x170 +1 x172 +1 x174
  +1 x176 +1 x183 +1 x194 +1 x198 >= +1
 c25: +1 x9 +1 x11 +1 x16 +1 x27 +1 x31 +1 x32 +1 x34 +1 x39 +1 x53 +1 x55 +1 x75 +1 x86 +1 x94 +1 x102
  +1 x108 +1 x149 +1 x174 +1 x180 >= +1
 c26: +1 x2 +1 x12 +1 x17 +1 x19 +1 x21 +1 x47 +1 x48 +1 x51 +1 x59 +1 x60 +1 x67 +1 x69 +1 x74 +1 x75
  +1 x77 +1 x82 +1 x91 +1 x95 +1 x96 +1 x97 +1 x103 +1 x122 +1 x137 +1 x146 +1 x152 +1 x164 +1 x178 +1 x196
  >= +1
 c27: +1 x6 +1 x23 +1 x33 +1 x45 +1 x46 +1 x54 +1 x64 +1 x65 +1 x67 +1 x68 +1 x72 +1 x77 +1 x83 +1 x86
  +1 x91 +1 x93 +1 x97 +1 x113 +1 x114 +1 x127 +1 x132 +1 x138 +1 x148 +1 x149 +1 x163 +1 x168 +1 x171
  +1 x179 +1 x180 +1 x182 +1 x189 +1 x199 >= +1
 c28: +1 x7 +1 x10 +1 x22 +1 x32 +1 x33 +1 x53 +1 x66 +1 x67 +1 x73 +1 x93 +1 x96 +1 x100 +1 x103 +1 x106
  +1 x114 +1 x137 +1 x142 +1 x146 +1 x150 +1 x152 +1 x159 +1 x160 +1 x164 +1 x176 >= +1
 c29: +1 x0 +1 x10 +1 x17 +1 x23 +1 x30 +1 x31 +1 x32 +1 x38 +1 x40 +1 x56 +1 x57 +1 x68 +1 x74 +1 x84
  +1 x91 +1 x95 +1 x97 +1 x110 +1 x125 +1 x127 +1 x136 +1 x138 +1 x148 +1 x159 +1 x168 +1 x170 +1 x172
  +1 x190 +1 x193 +1 x194 >= +1
 c30: +1 x0 +1 x13 +1 x21 +1 x30 +1 x50 +1 x51 +1 x66 +1 x79 +1 x88 +1 x101 +1 x115 +1 x123 +1 x134 +1 x140
  +1 x162 +1 x169 +1 x172 +1 x174 +1 x179 +1 x180 +1 x188 +1 x190 +1 x197 >= +1
 c31: +1 x7 +1 x23 +1 x57 +1 x61 +1 x63 +1 x68 +1 x74 +1 x95 +1 x103 +1 x114 +1 x117 +1 x124 +1 x129 +1 x136
  +1 x144 +1 x153 +1 x171 +1 x184 +1 x193 >= +1
 c32: +1 x10 +1 x12 +1 x13 +1 x20 +1 x23 +1 x35 +1 x39 +1 x50 +1 x61 +1 x64 +1 x67 +1 x99 +1 x127 +1 x130
  +1 x139 +1 x158 +1 x167 +1 x189 >= +1
 c33: +1 x0 +1 x14 +1 x15 +1 x32 +1 x50 +1 x56 +1 x61 +1 x65 +1 x83 +1 x94 +1 x100 +1 x107 +1 x126 +1 x129
  +1 x130 +1 x131 +1 x132 +1 x137 +1 x138 +1 x140 +1 x152 +1 x155 +1 x177 +1 x182 +1 x184 +1 x186 >= +1
 c34: +1 x5 +1 x10 +1 x14 +1 x15 +1 x16 +1 x38 +1 x61 +1 x62 +1 x73 +1 x83 +1 x97 +1 x103 +1 x113 +1 x124
  +1 x129 +1 x148 +1 x166 +1 x172 +1 x199 >= +1
 c35: +1 x9 +1 x17 +1 x18 +1 x22 +1 x29 +1 x64 +1 x74 +1 x80 +1 x148 +1 x150 +1 x168 +1 x188 +1 x190 +1 x191
  +1 x193 >= +1
 c36: +1 x8 +1 x17 +1 x25 +1 x26 +1 x44 +1 x57 +1 x63 +1 x65 +1 x71 +1 x79 +1 x84 +1 x100 +1 x106 +1 x108
  +1 x121 +1 x135 +1 x136 +1 x143 +1 x152 +1 x170 +1 x172 +1 x173 +1 x177 +1 x178 +1 x183 >= +1
 c37: +1 x9 +1 x12 +1 x30 +1 x40 +1 x51 +1 x54 +1 x72 +1 x84 +1 x86 +1 x90 +1 x96 +1 x114 +1 x116 +1 x136
  +1 x141 +1 x143 +1 x155 +1 x169 +1 x170 +1 x178 +1 x190 +1 x193 +1 x195 >= +1
 c38: +1 x1 +1 x20 +1 x21 +1 x53 +1 x69 +1 x76 +1 x78 +1 x84 +1 x93 +1 x112 +1 x124 +1 x133 +1 x137 +1 x140
  +1 x143 +1 x144 +1 x152 +1 x156 +1 x158 +1 x159 +1 x174 +1 x195 >= +1
 c39: +1 x3 +1 x12 +1 x31 +1 x39 +1 x47 +1 x61 +1 x82 +1 x100 +1 x105 +1 x118 +1 x120 +1 x131 +1 x151
  +1 x154 +1 x164 +1 x167 +1 x194 >= +1
 c40: +1 x6 +1 x13 +1 x36 +1 x53 +1 x68 +1 x70 +1 x81 +1 x95 +1 x101 +1 x112 +1 x117 +1 x120 +1 x126 +1 x128
  +1 x136 +1 x158 +1 x162 +1 x163 +1 x185 >= +1
 c41: +1 x0 +1 x11 +1 x20 +1 x28 +1 x34 +1 x35 +1 x36 +1 x38 +1 x41 +1 x81 +1 x84 +1 x90 +1 x96 +1 x98
  +1 x107 +1 x115 +1 x118 +1 x124 +1 x133 +1 x138 +1 x156 +1 x168 +1 x198 >= +1
 c42: +1 x3 +1 x10 +1 x17 +1 x32 +1 x43 +1 x73 +1 x78 +1 x92 +1 x99 +1 x111 +1 x112 +1 x124 +1 x129 +1 x144
  +1 x146 +1 x149 +1 x173 +1 x177 >= +1
 c43: +1 x4 +1 x10 +1 x25 +1 x28 +1 x30 +1 x34 +1 x35 +1 x52 +1 x53 +1 x61 +1 x63 +1 x88 +1 x103 +1 x124
  +1 x150 +1 x152 +1 x168 +1 x178 >= +1
 c44: +1 x6 +1 x48 +1 x56 +1 x62 +1 x76 +1 x116 +1 x125 +1 x131 +1 x133 +1 x139 +1 x140 +1 x151 +1 x162
  +1 x167 +1 x182 >= +1
 c45: +1 x2 +1 x11 +1 x32 +1 x39 +1 x48 +1 x52 +1 x63 +1 x75 +1 x79 +1 x88 +1 x93 +1 x103 +1 x126 +1 x140
  +1 x143 +1 x147 +1 x157 +1 x158 +1 x159 +1 x181 +1 x184 +1 x196 +1 x197 >= +1
 c46: +1 x7 +1 x20 +1 x36 +1 x43 +1 x57 +1 x60 +1 x64 +1 x71 +1 x79 +1 x83 +1 x84 +1 x100 +1 x102 +1 x119
  +1 x121 +1 x130 +1 x131 +1 x147 +1 x167 +1 x168 +1 x176 +1 x194 >= +1
 c47: +1 x5 +1 x11 +1 x16 +1 x19 +1 x22 +1 x37 +1 x95 +1 x112 +1 x116 +1 x124 +1 x127 +1 x129 +1 x152
  +1 x153 +1 x154 +1 x173 +1 x183 +1 x188 >= +1
 c48: +1 x6 +1 x22 +1 x32 +1 x47 +1 x62 +1 x69 +1 x70 +1 x71 +1 x75 +1 x85 +1 x87 +1 x88 +1 x90 +1 x95
  +1 x114 +1 x119 +1 x120 +1 x134 >= +1
 c49: +1 x0 +1 x15 +1 x24 +1 x34 +1 x37 +1 x68 +1 x106 +1 x111 +1 x125 +1 x130 +1 x135 +1 x159 +1 x170
  +1 x180 +1 x195 >= +1
 c50: +1 x3 +1 x34 +1 x46 +1 x57 +1 x59 +1 x60 +1 x76 +1 x77 +1 x89 +1 x93 +1 x94 +1 x96 +1 x97 +1 x118
  +1 x144 +1 x162 +1 x176 +1 x190 +1 x193 +1 x194 >= +1
 c51: +1 x7 +1 x12 +1 x16 +1 x38 +1 x54 +1 x56 +1 x59 +1 x62 +1 x70 +1 x79 +1 x93 +1 x103 +1 x114 +1 x131
  +1 x168 >= +1
 c52: +1 x5 +1 x21 +1 x30 +1 x36 +1 x47 +1 x48 +1 x71 +1 x74 +1 x76 +1 x77 +1 x80 +1 x99 +1 x102 +1 x108
  +1 x115 +1 x134 +1 x141 +1 x144 +1 x166 >= +1
 c53: +1 x8 +1 x12 +1 x14 +1 x23 +1 x27 +1 x42 +1 x65 +1 x81 +1 x106 +1 x120 +1 x126 +1 x132 +1 x159 +1 x192
  >= +1
 c54: +1 x5 +1 x48 +1 x51 +1 x55 +1 x64 +1 x81 +1 x85 +1 x89 +1 x92 +1 x104 +1 x119 +1 x126 +1 x128 +1 x130
  +1 x133 +1 x152 +1 x178 >= +1
 c55: +1 x8 +1 x14 +1 x35 +1 x56 +1 x86 +1 x89 +1 x100 +1 x110 +1 x111 +1 x123 +1 x137 +1 x141 +1 x146
  +1 x162 +1 x163 +1 x171 +1 x172 +1 x179 +1 x188 +1 x193 >= +1
 c56: +1 x6 +1 x22 +1 x73 +1 x82 +1 x91 +1 x100 +1 x123 +1 x137 +1 x143 +1 x169 +1 x189 >= +1
 c57: +1 x5 +1 x10 +1 x15 +1 x25 +1 x33 +1 x46 +1 x56 +1 x61 +1 x65 +1 x78 +1 x98 +1 x99 +1 x109 +1 x112
  +1 x115 +1 x130 +1 x141 +1 x145 +1 x157 +1 x163 >= +1
 c58: +1 x0 +1 x11 +1 x15 +1 x31 +1 x39 +1 x40 +1 x44 +1 x51 +1 x52 +1 x60 +1 x75 +1 x104 +1 x117 +1 x122
  +1 x151 +1 x164 +1 x167 +1 x177 >= +1
 c59: +1 x1 +1 x11 +1 x15 +1 x28 +1 x45 +1 x58 +1 x61 +1 x74 +1 x81 +1 x86 +1 x87 +1 x101 +1 x105 +1 x113
  +1 x130 +1 x147 +1 x169 +1 x176 +1 x188 >= +1
 c60: +1 x6 +1 x18 +1 x29 +1 x38 +1 x64 +1 x65 +1 x100 +1 x103 +1 x110 +1 x116 +1 x121 +1 x129 +1 x172
  +1 x181 +1 x186 +1 x190 >= +1
 c61: +1 x1 +1 x16 +1 x22 +1 x40 +1 x42 +1 x48 +1 x57 +1 x78 +1 x126 +1 x150 +1 x151 >= +1
 c62: +1 x9 +1 x13 +1 x21 +1 x29 +1 x37 +1 x39 +1 x49 +1 x64 +1 x82 +1 x104 +1 x125 +1 x149 +1 x178 >= +1
 c63: +1 x4 +1 x37 +1 x47 +1 x52 +1 x82 +1 x95 +1 x102 +1 x104 +1 x107 +1 x126 +1 x129 +1 x142 +1 x155
  +1 x158 +1 x179 +1 x189 >= +1
 c64: +1 x8 +1 x11 +1 x16 +1 x23 +1 x40 +1 x46 +1 x70 +1 x76 +1 x102 +1 x104 +1 x115 +1 x121 +1 x123 +1 x136
  +1 x146 +1 x156 +1 x161 +1 x173 +1 x177 +1 x189 >= +1
 c65: +1 x4 +1 x18 +1 x19 +1 x21 +1 x25 +1 x29 +1 x30 +1 x34 +1 x37 +1 x60 +1 x70 +1 x72 +1 x73 +1 x88
  +1 x89 +1 x118 +1 x119 +1 x146 +1 x152 +1 x159 +1 x160 +1 x182 +1 x190 +1 x196 >= +1
 c66: +1 x1 +1 x17 +1 x28 +1 x42 +1 x49 +1 x76 +1 x86 +1 x91 +1 x92 +1 x111 +1 x116 +1 x118 +1 x119 +1 x120
  +1 x134 +1 x135 +1 x145 +1 x170 +1 x193 >= +1
 c67: +1 x7 +1 x17 +1 x22 +1 x57 +1 x76 +1 x81 +1 x82 +1 x88 +1 x95 +1 x96 +1 x97 +1 x114 +1 x119 +1 x124
  +1 x140 +1 x159 +1 x161 +1 x162 +1 x164 +1 x169 +1 x174 +1 x183 >= +1
 c68: +1 x3 +1 x21 +1 x33 +1 x63 +1 x78 +1 x80 +1 x93 +1 x116 +1 x139 +1 x144 +1 x147 +1 x150 +1 x154
  +1 x176 +1 x180 +1 x182 +1 x197 >= +1
 c69: +1 x1 +1 x38 +1 x52 +1 x58 +1 x61 +1 x70 +1 x72 +1 x118 +1 x141 +1 x146 +1 x154 +1 x192 +1 x197
  >= +1
 c70: +1 x6 +1 x22 +1 x25 +1 x26 +1 x29 +1 x33 +1 x46 +1 x56 +1 x63 +1 x75 +1 x83 +1 x85 +1 x101 +1 x110
  +1 x147 +1 x148 +1 x165 +1 x166 +1 x172 +1 x174 >= +1
 c71: +1 x0 +1 x11 +1 x33 +1 x48 +1 x61 +1 x65 +1 x73 +1 x79 +1 x84 +1 x89 +1 x106 +1 x111 +1 x130 +1 x148
  +1 x152 +1 x153 +1 x156 +1 x162 +1 x167 +1 x182 +1 x196 >= +1
 c72: +1 x3 +1 x13 +1 x18 +1 x22 +1 x48 +1 x54 +1 x57 +1 x84 +1 x87 +1 x92 +1 x93 +1 x105 +1 x111 +1 x114
  +1 x115 +1 x132 +1 x136 +1 x162 +1 x164 +1 x173 +1 x176 +1 x196 >= +1
 c73: +1 x4 +1 x15 +1 x35 +1 x41 +1 x45 +1 x47 +1 x59 +1 x61 +1 x71 +1 x77 +1 x85 +1 x111 +1 x119 +1 x120
  +1 x122 +1 x130 +1 x131 +1 x149 +1 x153 +1 x155 +1 x161 +1 x166 +1 x193 +1 x195 >= +1
 c74: +1 x2 +1 x15 +1 x30 +1 x36 +1 x38 +1 x45 +1 x53 +1 x54 +1 x56 +1 x76 +1 x78 +1 x82 +1 x110 +1 x115
  +1 x117 +1 x118 +1 x120 +1 x122 +1 x131 +1 x136 +1 x138 +1 x146 +1 x163 +1 x164 +1 x171 +1 x191 +1 x198
  >= +1
 c75: +1 x6 +1 x17 +1 x27 +1 x28 +1 x33 +1 x38 +1 x42 +1 x44 +1 x46 +1 x48 +1 x51 +1 x53 +1 x59 +1 x64
  +1 x81 +1 x95 +1 x104 +1 x119 +1 x131 +1 x132 +1 x137 +1 x158 +1 x161 +1 x171 +1 x184 +1 x196 >= +1
 c76: +1 x4 +1 x22 +1 x40 +1 x45 +1 x50 +1 x67 +1 x69 +1 x72 +1 x80 +1 x81 +1 x85 +1 x90 +1 x101 +1 x104
  +1 x111 +1 x112 +1 x124 +1 x126 +1 x128 +1 x146 +1 x148 +1 x150 +1 x158 +1 x177 >= +1
 c77: +1 x5 +1 x15 +1 x17 +1 x32 +1 x34 +1 x45 +1 x51 +1 x53 +1 x58 +1 x60 +1 x74 +1 x80 +1 x89 +1 x90
  +1 x148 +1 x154 +1 x160 +1 x166 >= +1
 c78: +1 x4 +1 x17 +1 x20 +1 x25 +1 x38 +1 x39 +1 x50 +1 x72 +1 x73 +1 x89 +1 x94 +1 x109 +1 x118 +1 x132
  +1 x140 +1 x141 +1 x142 +1 x146 +1 x150 +1 x158 +1 x163 +1 x165 +1 x167 +1 x174 +1 x177 +1 x186 +1 x188
  +1 x192 +1 x194 +1 x199 >= +1
 c79: +1 x8 +1 x44 +1 x46 +1 x55 +1 x61 +1 x87 +1 x161 +1 x172 +1 x174 +1 x178 +1 x179 +1 x184 +1 x188
  >= +1
 c80: +1 x2 +1 x18 +1 x32 +1 x49 +1 x88 +1 x103 +1 x105 +1 x110 +1 x121 +1 x125 +1 x128 +1 x134 +1 x139
  +1 x151 +1 x161 +1 x167 +1 x171 +1 x179 +1 x193 >= +1
 c81: +1 x3 +1 x17 +1 x21 +1 x33 +1 x50 +1 x56 +1 x57 +1 x72 +1 x110 +1 x114 +1 x135 +1 x142 +1 x151 +1 x160
  +1 x167 +1 x171 +1 x177 +1 x186 >= +1
 c82: +1 x7 +1 x20 +1 x23 +1 x26 +1 x29 +1 x67 +1 x105 +1 x106 +1 x112 +1 x113 +1 x114 +1 x120 +1 x149
  +1 x166 +1 x171 >= +1
 c83: +1 x9 +1 x11 +1 x12 +1 x16 +1 x45 +1 x52 +1 x57 +1 x60 +1 x85 +1 x88 +1 x90 +1 x92 +1 x95 +1 x106
  +1 x119 +1 x124 +1 x125 +1 x132 +1 x150 +1 x159 +1 x172 +1 x174 +1 x179 >= +1
 c84: +1 x4 +1 x31 +1 x44 +1 x58 +1 x64 +1 x69 +1 x82 +1 x119 +1 x127 +1 x135 +1 x136 +1 x170 +1 x171
  +1 x176 +1 x198 >= +1
 c85: +1 x3 +1 x14 +1 x37 +1 x38 +1 x40 +1 x44 +1 x46 +1 x59 +1 x65 +1 x66 +1 x70 +1 x74 +1 x84 +1 x85
  +1 x87 +1 x127 +1 x131 +1 x134 +1 x146 +1 x157 +1 x163 +1 x169 +1 x177 +1 x184 +1 x196 +1 x198 >= +1
 c86: +1 x8 +1 x10 +1 x27 +1 x29 +1 x33 +1 x35 +1 x44 +1 x52 +1 x54 +1 x56 +1 x86 +1 x96 +1 x116 +1 x153
  +1 x155 +1 x164 >= +1
 c87: +1 x2 +1 x21 +1 x26 +1 x30 +1 x40 +1 x62 +1 x64 +1 x66 +1 x78 +1 x83 +1 x85 +1 x93 +1 x100 +1 x119
  +1 x121 +1 x125 +1 x166 +1 x172 +1 x175 +1 x189 +1 x198 >= +1
 c88: +1 x2 +1 x29 +1 x36 +1 x58 +1 x62 +1 x63 +1 x64 +1 x84 +1 x86 +1 x94 +1 x96 +1 x107 +1 x126 +1 x139
  +1 x150 +1 x157 +1 x162 +1 x165 +1 x182 +1 x194 >= +1
 c89: +1 x7 +1 x23 +1 x34 +1 x35 +1 x50 +1 x78 +1 x80 +1 x84 +1 x90 +1 x91 +1 x94 +1 x97 +1 x103 +1 x124
  +1 x140 +1 x153 +1 x174 +1 x180 +1 x188 +1 x190 +1 x197 >= +1
 c90: +1 x6 +1 x20 +1 x30 +1 x34 +1 x46 +1 x48 +1 x55 +1 x60 +1 x72 +1 x73 +1 x74 +1 x78 +1 x87 +1 x104
  +1 x105 +1 x113 +1 x119 +1 x123 +1 x124 +1 x127 +1 x153 +1 x154 >= +1
 c91: +1 x0 +1 x12 +1 x31 +1 x39 +1 x43 +1 x50 +1 x51 +1 x55 +1 x88 +1 x91 +1 x103 +1 x110 +1 x117 +1 x123
  +1 x128 +1 x131 +1 x143 +1 x147 +1 x152 +1 x158 +1 x160 +1 x171 +1 x176 >= +1
 c92: +1 x0 +1 x15 +1 x20 +1 x35 +1 x38 +1 x45 +1 x48 +1 x73 +1 x84 +1 x97 +1 x106 +1 x111 +1 x133 +1 x138
  +1 x140 +1 x145 +1 x150 +1 x153 +1 x156 +1 x158 +1 x163 +1 x180 +1 x187 +1 x189 +1 x191 +1 x194 +1 x196
  +1 x197 +1 x198 >= +1
 c93: +1 x0 +1 x39 +1 x40 +1 x41 +1 x105 +1 x111 +1 x113 +1 x115 +1 x121 +1 x127 +1 x140 +1 x149 +1 x157
  +1 x161 +1 x168 +1 x185 +1 x187 +1 x192 +1 x196 >= +1
 c94: +1 x4 +1 x10 +1 x21 +1 x23 +1 x25 +1 x36 +1 x43 +1 x48 +1 x56 +1 x80 +1 x87 +1 x94 +1 x100 +1 x102
  +1 x143 +1 x153 +1 x155 +1 x175 +1 x199 >= +1
 c95: +1 x3 +1 x48 +1 x51 +1 x60 +1 x65 +1 x73 +1 x74 +1 x76 +1 x90 +1 x94 +1 x98 +1 x104 +1 x113 +1 x120
  +1 x129 +1 x144 +1 x160 +1 x162 +1 x167 +1 x186 +1 x194 >= +1
 c96: +1 x3 +1 x20 +1 x24 +1 x27 +1 x51 +1 x72 +1 x85 +1 x87 +1 x89 +1 x95 +1 x98 +1 x100 +1 x107 +1 x121
  +1 x130 +1 x137 +1 x145 +1 x161 +1 x166 +1 x169 +1 x179 +1 x184 >= +1
 c97: +1 x4 +1 x17 +1 x25 +1 x27 +1 x41 +1 x59 +1 x67 +1 x78 +1 x87 +1 x128 +1 x149 +1 x158 +1 x159 +1 x160
  +1 x180 +1 x187 +1 x188 >= +1
 c98: +1 x7 +1 x15 +1 x19 +1 x26 +1 x28 +1 x39 +1 x70 +1 x75 +1 x94 +1 x105 +1 x109 +1 x117 +1 x119 +1 x162
  +1 x166 +1 x168 +1 x170 +1 x176 +1 x180 +1 x185 +1 x198 >= +1
 c99: +1 x5 +1 x36 +1 x51 +1 x55 +1 x59 +1 x71 +1 x79 +1 x109 +1 x113 +1 x117 +1 x145 +1 x146 +1 x153
  +1 x155 +1 x168 +1 x192 >= +1
 c100: +1 x6 +1 x28 +1 x34 +1 x43 +1 x47 +1 x66 +1 x71 +1 x77 +1 x84 +1 x91 +1 x104 +1 x114 +1 x116 +1 x118
  +1 x121 +1 x145 +1 x150 +1 x158 +1 x163 +1 x174 +1 x177 >= +1
 c101: +1 x6 +1 x24 +1 x34 +1 x50 +1 x59 +1 x61 +1 x69 +1 x82 +1 x96 +1 x107 +1 x124 +1 x192 +1 x195 >= +1
 c102: +1 x5 +1 x13 +1 x16 +1 x25 +1 x60 +1 x68 +1 x84 +1 x92 +1 x104 +1 x121 +1 x147 +1 x150 +1 x153
  +1 x162 +1 x170 +1 x180 +1 x184 >= +1
 c103: +1 x9 +1 x14 +1 x15 +1 x18 +1 x28 +1 x37 +1 x39 +1 x44 +1 x46 +1 x47 +1 x63 +1 x72 +1 x100 +1 x115
  +1 x131 +1 x143 >= +1
 c104: +1 x1 +1 x22 +1 x25 +1 x41 +1 x52 +1 x55 +1 x56 +1 x62 +1 x65 +1 x74 +1 x85 +1 x113 +1 x124 +1 x125
  +1 x148 +1 x156 +1 x179 +1 x184 >= +1
 c105: +1 x0 +1 x15 +1 x17 +1 x19 +1 x23 +1 x31 +1 x40 +1 x58 +1 x66 +1 x67 +1 x79 +1 x96 +1 x98 +1 x107
  +1 x110 +1 x115 +1 x148 +1 x150 +1 x155 +1 x157 +1 x183 +1 x189 +1 x190 +1 x197 >= +1
 c106: +1 x7 +1 x31 +1 x36 +1 x58 +1 x72 +1 x110 +1 x118 +1 x130 +1 x135 +1 x150 +1 x174 +1 x191 >= +1
 c107: +1 x9 +1 x10 +1 x30 +1 x39 +1 x45 +1 x51 +1 x53 +1 x58 +1 x61 +1 x69 +1 x70 +1 x73 +1 x89 +1 x104
  +1 x105 +1 x109 +1 x121 +1 x122 +1 x125 +1 x134 +1 x138 +1 x142 +1 x168 +1 x174 +1 x182 +1 x186 +1 x188
  +1 x189 >= +1
 c108: +1 x3 +1 x12 +1 x13 +1 x18 +1 x28 +1 x39 +1 x44 +1 x52 +1 x63 +1 x82 +1 x108 +1 x115 +1 x123 +1 x139
  +1 x155 +1 x160 +1 x161 +1 x171 +1 x183 +1 x192 >= +1
 c109: +1 x8 +1 x24 +1 x30 +1 x40 +1 x41 +1 x61 +1 x76 +1 x88 +1 x102 +1 x108 +1 x122 +1 x146 +1 x170
  +1 x173 +1 x179 +1 x181 >= +1
 c110: +1 x9 +1 x30 +1 x47 +1 x53 +1 x67 +1 x78 +1 x82 +1 x97 +1 x116 +1 x120 +1 x129 +1 x136 +1 x146
  +1 x154 +1 x174 +1 x177 +1 x188 +1 x197 >= +1
 c111: +1 x0 +1 x14 +1 x28 +1 x31 +1 x41 +1 x42 +1 x66 +1 x74 +1 x79 +1 x81 +1 x108 +1 x114 +1 x119 +1 x141
  +1 x147 +1 x151 +1 x186 >= +1
 c112: +1 x4 +1 x43 +1 x46 +1 x52 +1 x54 +1 x61 +1 x70 +1 x79 +1 x92 +1 x98 +1 x103 +1 x106 +1 x110 +1 x118
  +1 x121 +1 x152 +1 x156 +1 x159 +1 x160 +1 x173 +1 x186 >= +1
 c113: +1 x2 +1 x16 +1 x23 +1 x33 +1 x35 +1 x59 +1 x65 +1 x68 +1 x71 +1 x77 +1 x78 +1 x81 +1 x88 +1 x89
  +1 x92 +1 x96 +1 x102 +1 x105 +1 x106 +1 x107 +1 x114 +1 x115 +1 x120 +1 x122 +1 x152 +1 x156 +1 x158
  +1 x194 +1 x195 +1 x196 >= +1
 c114: +1 x7 +1 x13 +1 x22 +1 x30 +1 x62 +1 x86 +1 x99 +1 x100 +1 x102 +1 x105 +1 x123 +1 x136 +1 x146
  +1 x160 +1 x162 +1 x196 +1 x198 >= +1
 c115: +1 x2 +1 x12 +1 x26 +1 x29 +1 x36 +1 x53 +1 x67 +1 x88 +1 x110 +1 x136 +1 x157 +1 x175 +1 x177
  +1 x187 >= +1
 c116: +1 x5 +1 x11 +1 x13 +1 x16 +1 x28 +1 x29 +1 x53 +1 x56 +1 x57 +1 x62 +1 x63 +1 x67 +1 x74 +1 x88
  +1 x112 +1 x122 +1 x138 +1 x141 +1 x147 +1 x151 +1 x179 >= +1
 c117: +1 x9 +1 x14 +1 x31 +1 x70 +1 x88 +1 x104 +1 x128 +1 x129 +1 x134 +1 x135 +1 x144 +1 x148 +1 x163
  +1 x166 +1 x190 +1 x197 >= +1
 c118: +1 x5 +1 x13 +1 x15 +1 x16 +1 x21 +1 x37 +1 x39 +1 x65 +1 x73 +1 x78 +1 x79 +1 x81 +1 x82 +1 x83
  +1 x96 +1 x106 +1 x112 +1 x114 +1 x115 +1 x117 +1 x133 +1 x140 +1 x143 +1 x160 +1 x161 +1 x163 +1 x168
  +1 x175 +1 x185 +1 x198 >= +1
 c119: +1 x3 +1 x21 +1 x25 +1 x27 +1 x34 +1 x35 +1 x72 +1 x76 +1 x77 +1 x86 +1 x88 +1 x97 +1 x98 +1 x121
  +1 x143 +1 x146 +1 x159 +1 x166 +1 x176 +1 x184 +1 x194 +1 x197 +1 x198 >= +1
 c120: +1 x8 +1 x15 +1 x28 +1 x36 +1 x45 +1 x47 +1 x50 +1 x52 +1 x64 +1 x87 +1 x101 +1 x129 +1 x144 +1 x148
  +1 x157 +1 x160 +1 x164 +1 x165 +1 x166 >= +1
 c121: +1 x3 +1 x15 +1 x31 +1 x48 +1 x68 +1 x77 +1 x85 +1 x103 +1 x110 +1 x111 +1 x112 +1 x119 +1 x125
  +1 x132 +1 x144 +1 x151 +1 x163 +1 x178 +1 x181 +1 x185 +1 x186 +1 x187 >= +1
 c122: +1 x1 +1 x13 +1 x22 +1 x33 +1 x48 +1 x73 +1 x79 +1 x83 +1 x95 +1 x98 +1 x104 +1 x105 +1 x111 +1 x113
  +1 x123 +1 x143 +1 x166 +1 x167 +1 x188 +1 x189 +1 x192 >= +1
 c123: +1 x6 +1 x13 +1 x25 +1 x42 +1 x52 +1 x55 +1 x59 +1 x64 +1 x71 +1 x79 +1 x94 +1 x99 +1 x103 +1 x116
  +1 x129 +1 x130 +1 x133 +1 x135 +1 x147 +1 x150 +1 x159 +1 x164 +1 x184 +1 x190 +1 x195 >= +1
 c124: +1 x9 +1 x29 +1 x36 +1 x41 +1 x53 +1 x57 +1 x60 +1 x64 +1 x87 +1 x104 +1 x112 +1 x119 +1 x124 +1 x125
  +1 x130 +1 x139 +1 x145 +1 x146 +1 x155 +1 x156 +1 x159 +1 x174 +1 x179 +1 x181 +1 x185 +1 x197 >= +1
 c125: +1 x8 +1 x20 +1 x31 +1 x34 +1 x41 +1 x49 +1 x65 +1 x81 +1 x97 +1 x100 +1 x103 +1 x121 +1 x135 +1 x142
  +1 x153 +1 x158 +1 x171 +1 x180 +1 x187 +1 x190 >= +1
 c126: +1 x3 +1 x11 +1 x13 +1 x15 +1 x17 +1 x18 +1 x48 +1 x61 +1 x63 +1 x79 +1 x80 +1 x91 +1 x112 +1 x133
  +1 x170 +1 x186 +1 x188 >= +1
 c127: +1 x6 +1 x10 +1 x23 +1 x28 +1 x37 +1 x47 +1 x50 +1 x69 +1 x90 +1 x94 +1 x97 +1 x102 +1 x111 +1 x134
  +1 x152 +1 x153 +1 x165 +1 x171 +1 x175 +1 x178 +1 x181 +1 x186 +1 x187 >= +1
 c128: +1 x10 +1 x18 +1 x19 +1 x36 +1 x41 +1 x42 +1 x44 +1 x59 +1 x66 +1 x75 +1 x101 +1 x111 +1 x113 +1 x120
  +1 x121 +1 x122 +1 x132 +1 x138 +1 x140 +1 x157 +1 x160 +1 x162 +1 x181 +1 x183 +1 x189 +1 x194 +1 x199
  >= +1
 c129: +1 x3 +1 x12 +1 x20 +1 x31 +1 x46 +1 x57 +1 x62 +1 x82 +1 x83 +1 x96 +1 x101 +1 x106 +1 x120 +1 x121
  +1 x130 +1 x140 +1 x152 +1 x158 +1 x182 +1 x185 +1 x189 +1 x190 +1 x192 +1 x195 >= +1
 c130: +1 x8 +1 x26 +1 x29 +1 x42 +1 x49 +1 x55 +1 x59 +1 x69 +1 x83 +1 x86 +1 x88 +1 x92 +1 x97 +1 x109
  +1 x154 +1 x161 +1 x169 +1 x193 +1 x197 >= +1
 c131: +1 x9 +1 x11 +1 x19 +1 x21 +1 x30 +1 x41 +1 x43 +1 x47 +1 x69 +1 x75 +1 x77 +1 x87 +1 x94 +1 x135
  +1 x142 +1 x152 +1 x177 +1 x182 +1 x192 >= +1
 c132: +1 x9 +1 x13 +1 x21 +1 x23 +1 x54 +1 x69 +1 x72 +1 x105 +1 x133 +1 x145 +1 x146 +1 x147 +1 x158
  +1 x165 +1 x167 +1 x168 +1 x176 +1 x178 +1 x191 >= +1
 c133: +1 x9 +1 x16 +1 x31 +1 x33 +1 x39 +1 x45 +1 x90 +1 x101 +1 x171 +1 x174 >= +1
 c134: +1 x9 +1 x10 +1 x28 +1 x36 +1 x47 +1 x48 +1 x86 +1 x98 +1 x106 +1 x126 +1 x150 +1 x174 >= +1
 c135: +1 x1 +1 x24 +1 x47 +1 x52 +1 x54 +1 x60 +1 x64 +1 x74 +1 x79 +1 x80 +1 x84 +1 x96 +1 x100 +1 x116
  +1 x157 +1 x175 +1 x183 >= +1
 c136: +1 x2 +1 x17 +1 x24 +1 x28 +1 x30 +1 x36 +1 x41 +1 x49 +1 x54 +1 x98 +1 x104 +1 x107 +1 x108 +1 x109
  +1 x112 +1 x129 +1 x133 +1 x134 +1 x137 +1 x139 +1 x146 +1 x148 +1 x160 +1 x166 +1 x167 +1 x169 +1 x176
  +1 x177 +1 x179 +1 x185 >= +1
 c137: +1 x9 +1 x24 +1 x34 +1 x45 +1 x52 +1 x55 +1 x59 +1 x64 +1 x66 +1 x68 +1 x69 +1 x88 +1 x91 +1 x100
  +1 x113 +1 x115 +1 x124 +1 x131 +1 x151 +1 x160 +1 x172 +1 x182 +1 x192 >= +1
 c138: +1 x2 +1 x10 +1 x21 +1 x38 +1 x42 +1 x43 +1 x58 +1 x61 +1 x70 +1 x72 +1 x96 +1 x102 +1 x115 +1 x123
  +1 x132 +1 x136 +1 x137 +1 x142 +1 x164 +1 x170 +1 x181 +1 x194 +1 x198 >= +1
 c139: +1 x2 +1 x51 +1 x53 +1 x59 +1 x60 +1 x71 +1 x72 +1 x103 +1 x134 +1 x138 +1 x144 +1 x147 +1 x185
  +1 x187 >= +1
 c140: +1 x6 +1 x14 +1 x19 +1 x46 +1 x48 +1 x66 +1 x70 +1 x72 +1 x94 +1 x103 +1 x143 +1 x147 +1 x165 +1 x170
  +1 x176 +1 x179 +1 x188 +1 x196 +1 x198 >= +1
 c141: +1 x1 +1 x12 +1 x36 +1 x56 +1 x63 +1 x71 +1 x80 +1 x81 +1 x114 +1 x119 +1 x121 +1 x131 +1 x138
  +1 x140 +1 x142 +1 x145 +1 x149 +1 x158 +1 x160 +1 x163 +1 x165 +1 x187 +1 x199 >= +1
 c142: +1 x1 +1 x20 +1 x24 +1 x27 +1 x37 +1 x40 +1 x47 +1 x49 +1 x72 +1 x74 +1 x77 +1 x78 +1 x83 +1 x90
  +1 x93 +1 x109 +1 x124 +1 x145 +1 x161 +1 x174 +1 x181 >= +1
 c143: +1 x8 +1 x11 +1 x13 +1 x18 +1 x36 +1 x43 +1 x50 +1 x59 +1 x61 +1 x73 +1 x83 +1 x85 +1 x89 +1 x101
  +1 x103 +1 x105 +1 x114 +1 x116 +1 x152 +1 x154 +1 x164 +1 x181 +1 x183 +1 x186 +1 x187 +1 x189 +1 x195
  >= +1
 c144: +1 x1 +1 x13 +1 x24 +1 x26 +1 x27 +1 x35 +1 x37 +1 x63 +1 x86 +1 x89 +1 x90 +1 x109 +1 x124 +1 x130
  +1 x157 +1 x158 +1 x163 +1 x173 >= +1
 c145: +1 x0 +1 x15 +1 x26 +1 x28 +1 x36 +1 x41 +1 x49 +1 x50 +1 x54 +1 x63 +1 x66 +1 x93 +1 x94 +1 x100
  +1 x106 +1 x129 +1 x145 +1 x146 +1 x152 +1 x171 +1 x173 +1 x176 +1 x179 +1 x187 +1 x188 >= +1
 c146: +1 x3 +1 x41 +1 x45 +1 x52 +1 x56 +1 x66 +1 x71 +1 x85 +1 x88 +1 x118 +1 x120 +1 x122 +1 x127 +1 x128
  +1 x131 +1 x140 +1 x143 +1 x150 +1 x155 +1 x164 +1 x185 +1 x188 +1 x195 >= +1
 c147: +1 x5 +1 x14 +1 x48 +1 x74 +1 x82 +1 x95 +1 x105 +1 x110 +1 x126 +1 x155 +1 x158 +1 x173 +1 x175
  +1 x189 +1 x193 +1 x197 >= +1
 c148: +1 x5 +1 x14 +1 x16 +1 x17 +1 x22 +1 x26 +1 x31 +1 x35 +1 x40 +1 x72 +1 x79 +1 x92 +1 x95 +1 x108
  +1 x112 +1 x116 +1 x117 +1 x124 +1 x134 +1 x149 +1 x163 +1 x172 +1 x186 +1 x198 >= +1
 c149: +1 x2 +1 x14 +1 x25 +1 x32 +1 x49 +1 x54 +1 x65 +1 x70 +1 x73 +1 x79 +1 x87 +1 x90 +1 x91 +1 x97
  +1 x100 +1 x143 +1 x148 +1 x167 +1 x179 +1 x184 +1 x191 +1 x192 >= +1
 c150: +1 x6 +1 x15 +1 x20 +1 x22 +1 x48 +1 x53 +1 x66 +1 x98 +1 x126 +1 x127 +1 x135 +1 x137 +1 x141
  +1 x156 +1 x160 +1 x171 +1 x174 +1 x189 >= +1
 c151: +1 x2 +1 x26 +1 x45 +1 x79 +1 x85 +1 x108 +1 x111 +1 x114 +1 x118 +1 x120 +1 x131 +1 x139 +1 x149
  +1 x168 +1 x173 +1 x174 +1 x197 >= +1
 c152: +1 x8 +1 x14 +1 x16 +1 x33 +1 x41 +1 x43 +1 x53 +1 x70 +1 x73 +1 x78 +1 x93 +1 x95 +1 x96 +1 x101
  +1 x119 +1 x123 +1 x124 +1 x125 +1 x128 +1 x136 +1 x161 +1 x163 +1 x179 +1 x187 +1 x193 >= +1
 c153: +1 x4 +1 x11 +1 x15 +1 x20 +1 x26 +1 x29 +1 x45 +1 x67 +1 x73 +1 x78 +1 x82 +1 x87 +1 x93 +1 x106
  +1 x111 +1 x117 +1 x130 +1 x143 +1 x151 +1 x159 +1 x178 +1 x181 +1 x186 +1 x192 >= +1
 c154: +1 x7 +1 x16 +1 x21 +1 x22 +1 x28 +1 x39 +1 x47 +1 x81 +1 x94 +1 x97 +1 x105 +1 x111 +1 x113 +1 x115
  +1 x123 +1 x124 +1 x174 +1 x176 +1 x183 +1 x185 +1 x186 +1 x189 +1 x194 +1 x196 >= +1
 c155: +1 x1 +1 x41 +1 x56 +1 x57 +1 x65 +1 x92 +1 x97 +1 x109 +1 x128 +1 x129 +1 x134 +1 x156 +1 x159
  +1 x161 +1 x175 +1 x196 +1 x197 >= +1
 c156: +1 x0 +1 x17 +1 x34 +1 x40 +1 x55 +1 x67 +1 x98 +1 x121 +1 x140 +1 x141 +1 x149 +1 x183 +1 x188
  +1 x195 >= +1
 c157: +1 x6 +1 x19 +1 x47 +1 x60 +1 x80 +1 x91 +1 x113 +1 x120 +1 x132 +1 x135 +1 x160 +1 x163 +1 x164
  +1 x166 +1 x176 +1 x195 >= +1
 c158: +1 x9 +1 x11 +1 x22 +1 x27 +1 x49 +1 x61 +1 x65 +1 x66 +1 x68 +1 x70 +1 x96 +1 x125 +1 x127 +1 x130
  +1 x155 +1 x176 +1 x182 >= +1
 c159: +1 x0 +1 x18 +1 x65 +1 x71 +1 x77 +1 x101 +1 x132 +1 x135 +1 x138 +1 x146 +1 x177 +1 x183 +1 x192
  >= +1
 c160: +1 x2 +1 x16 +1 x24 +1 x29 +1 x40 +1 x59 +1 x89 +1 x94 +1 x98 +1 x102 +1 x118 +1 x131 +1 x136 +1 x146
  >= +1
 c161: +1 x7 +1 x10 +1 x17 +1 x29 +1 x108 +1 x113 +1 x118 +1 x122 +1 x126 +1 x130 +1 x132 +1 x168 +1 x174
  +1 x179 +1 x181 +1 x185 +1 x189 +1 x196 >= +1
 c162: +1 x1 +1 x12 +1 x48 +1 x49 +1 x52 +1 x59 +1 x64 +1 x65 +1 x89 +1 x104 +1 x128 +1 x133 +1 x138 +1 x145
  +1 x191 >= +1
 c163: +1 x3 +1 x15 +1 x25 +1 x33 +1 x40 +1 x45 +1 x67 +1 x69 +1 x81 +1 x93 +1 x100 +1 x130 +1 x138 +1 x140
  +1 x143 +1 x147 +1 x156 +1 x165 +1 x169 +1 x172 +1 x176 +1 x188 +1 x194 >= +1
 c164: +1 x2 +1 x14 +1 x20 +1 x23 +1 x25 +1 x28 +1 x38 +1 x45 +1 x49 +1 x72 +1 x92 +1 x119 +1 x120 +1 x133
  +1 x152 +1 x157 >= +1
 c165: +1 x1 +1 x10 +1 x32 +1 x37 +1 x47 +1 x57 +1 x76 +1 x93 +1 x101 +1 x107 +1 x111 +1 x118 +1 x121
  +1 x141 +1 x148 +1 x170 +1 x171 +1 x178 +1 x181 +1 x189 +1 x191 >= +1
 c166: +1 x7 +1 x14 +1 x21 +1 x37 +1 x56 +1 x65 +1 x69 +1 x81 +1 x86 +1 x91 +1 x93 +1 x110 +1 x156 +1 x168
  +1 x177 +1 x178 +1 x185 +1 x188 +1 x191 >= +1
 c167: +1 x9 +1 x29 +1 x38 +1 x39 +1 x49 +1 x56 +1 x60 +1 x72 +1 x73 +1 x81 +1 x89 +1 x107 +1 x109 +1 x112
  +1 x115 +1 x130 +1 x160 +1 x166 +1 x167 +1 x189 +1 x195 >= +1
 c168: +1 x7 +1 x26 +1 x34 +1 x45 +1 x59 +1 x73 +1 x77 +1 x109 +1 x117 +1 x119 +1 x127 +1 x142 +1 x151
  +1 x166 +1 x178 +1 x181 +1 x184 +1 x199 >= +1
 c169: +1 x5 +1 x12 +1 x16 +1 x17 +1 x20 +1 x26 +1 x63 +1 x64 +1 x67 +1 x117 +1 x119 +1 x124 +1 x135 +1 x157
  +1 x166 +1 x182 +1 x191 >= +1
 c170: +1 x3 +1 x21 +1 x26 +1 x38 +1 x43 +1 x60 +1 x74 +1 x92 +1 x93 +1 x97 +1 x118 +1 x123 +1 x126 +1 x129
  +1 x150 +1 x162 +1 x167 +1 x177 +1 x190 +1 x192 >= +1
 c171: +1 x4 +1 x44 +1 x67 +1 x69 +1 x74 +1 x76 +1 x108 +1 x131 +1 x134 +1 x147 +1 x153 +1 x156 +1 x161
  +1 x177 +1 x192 >= +1
 c172: +1 x5 +1 x14 +1 x16 +1 x17 +1 x18 +1 x24 +1 x30 +1 x47 +1 x63 +1 x77 +1 x87 +1 x88 +1 x96 +1 x99
  +1 x100 +1 x110 +1 x112 +1 x116 +1 x122 +1 x131 +1 x138 +1 x143 +1 x147 +1 x148 +1 x149 +1 x161 +1 x167
  +1 x185 >= +1
 c173: +1 x8 +1 x14 +1 x26 +1 x54 +1 x55 +1 x56 +1 x75 +1 x83 +1 x88 +1 x97 +1 x110 +1 x137 +1 x153 +1 x175
  +1 x185 +1 x189 >= +1
 c174: +1 x8 +1 x45 +1 x72 +1 x74 +1 x78 +1 x80 +1 x81 +1 x84 +1 x98 +1 x102 +1 x109 +1 x129 +1 x133 +1 x144
  +1 x148 +1 x155 +1 x167 +1 x169 +1 x177 +1 x178 +1 x196 >= +1
 c175: +1 x4 +1 x12 +1 x45 +1 x49 +1 x53 +1 x54 +1 x61 +1 x66 +1 x73 +1 x77 +1 x79 +1 x88 +1 x103 +1 x110
  +1 x112 +1 x117 +1 x132 +1 x148 +1 x158 +1 x187 +1 x188 >= +1
 c176: +1 x3 +1 x28 +1 x32 +1 x35 +1 x41 +1 x58 +1 x66 +1 x81 +1 x84 +1 x91 +1 x106 +1 x109 +1 x136 +1 x137
  +1 x142 +1 x149 +1 x151 +1 x152 +1 x159 +1 x175 +1 x186 +1 x190 +1 x192 >= +1
 c177: +1 x9 +1 x21 +1 x28 +1 x29 +1 x30 +1 x38 +1 x41 +1 x55 +1 x71 +1 x75 +1 x91 +1 x97 +1 x103 +1 x116
  +1 x130 +1 x133 +1 x135 +1 x147 +1 x164 +1 x166 +1 x175 +1 x193 +1 x194 +1 x195 +1 x196 >= +1
 c178: +1 x7 +1 x30 +1 x38 +1 x66 +1 x67 +1 x68 +1 x85 +1 x95 +1 x96 +1 x99 +1 x110 +1 x122 +1 x124 +1 x130
  +1 x131 +1 x142 +1 x147 +1 x157 +1 x159 +1 x165 +1 x180 +1 x194 +1 x195 >= +1
 c179: +1 x8 +1 x14 +1 x15 +1 x20 +1 x25 +1 x52 +1 x79 +1 x106 +1 x115 +1 x126 +1 x129 +1 x130 +1 x133
  +1 x134 +1 x153 +1 x166 +1 x173 +1 x178 +1 x181 +1 x188 >= +1
 c180: +1 x3 +1 x15 +1 x19 +1 x63 +1 x82 +1 x89 +1 x97 +1 x100 +1 x107 +1 x108 +1 x153 +1 x156 +1 x157
  +1 x159 +1 x164 +1 x171 +1 x172 +1 x179 +1 x192 >= +1
 c181: +1 x1 +1 x18 +1 x31 +1 x35 +1 x43 +1 x44 +1 x48 +1 x69 +1 x72 +1 x76 +1 x81 +1 x83 +1 x90 +1 x104
  +1 x119 +1 x125 +1 x129 +1 x156 +1 x158 +1 x160 +1 x162 +1 x171 +1 x178 +1 x181 +1 x182 +1 x185 +1 x186
  +1 x187 +1 x193 +1 x195 >= +1
 c182: +1 x9 +1 x18 +1 x23 +1 x24 +1 x55 +1 x66 +1 x70 +1 x81 +1 x87 +1 x101 +1 x117 +1 x123 +1 x134 +1 x135
  +1 x149 +1 x164 +1 x166 +1 x171 +1 x194 +1 x196 >= +1
 c183: +1 x7 +1 x17 +1 x45 +1 x55 +1 x65 +1 x68 +1 x69 +1 x70 +1 x71 +1 x80 +1 x93 +1 x121 +1 x137 +1 x143
  +1 x151 +1 x153 +1 x173 +1 x197 >= +1
 c184: +1 x8 +1 x15 +1 x26 +1 x36 +1 x52 +1 x56 +1 x60 +1 x68 +1 x71 +1 x104 +1 x123 +1 x138 +1 x159 +1 x181
  +1 x184 +1 x190 +1 x196 +1 x197 >= +1
 c185: +1 x2 +1 x24 +1 x30 +1 x41 +1 x51 +1 x66 +1 x71 +1 x76 +1 x78 +1 x86 +1 x95 +1 x104 +1 x124 +1 x127
  +1 x139 +1 x144 +1 x177 +1 x179 +1 x181 +1 x193 >= +1
 c186: +1 x3 +1 x26 +1 x32 +1 x34 +1 x63 +1 x81 +1 x99 +1 x107 +1 x132 +1 x138 +1 x139 +1 x146 +1 x148
  +1 x149 +1 x163 +1 x181 +1 x188 +1 x196 >= +1
 c187: +1 x4 +1 x29 +1 x32 +1 x33 +1 x47 +1 x53 +1 x58 +1 x74 +1 x78 +1 x94 +1 x107 +1 x114 +1 x117 +1 x132
  +1 x134 +1 x157 +1 x165 +1 x172 +1 x180 +1 x187 +1 x188 +1 x199 >= +1
 c188: +1 x1 +1 x15 +1 x30 +1 x55 +1 x56 +1 x57 +1 x72 +1 x85 +1 x112 +1 x151 +1 x162 +1 x171 +1 x177
  +1 x189 +1 x191 >= +1
 c189: +1 x3 +1 x10 +1 x17 +1 x25 +1 x47 +1 x49 +1 x53 +1 x56 +1 x59 +1 x62 +1 x68 +1 x70 +1 x78 +1 x105
  +1 x106 +1 x111 +1 x118 +1 x153 +1 x169 +1 x172 +1 x173 +1 x185 +1 x188 >= +1
 c190: +1 x8 +1 x15 +1 x19 +1 x27 +1 x49 +1 x77 +1 x103 +1 x125 +1 x126 +1 x146 +1 x153 +1 x158 +1 x160
  +1 x177 +1 x185 +1 x186 >= +1
 c191: +1 x5 +1 x11 +1 x22 +1 x34 +1 x66 +1 x86 +1 x96 +1 x100 +1 x106 +1 x110 +1 x116 +1 x118 +1 x136
  +1 x137 +1 x170 +1 x171 +1 x177 +1 x183 +1 x192 +1 x194 >= +1
 c192: +1 x1 +1 x10 +1 x12 +1 x14 +1 x37 +1 x46 +1 x79 +1 x92 +1 x119 +1 x123 +1 x155 +1 x174 +1 x178
  +1 x180 +1 x191 +1 x196 +1 x198 >= +1
 c193: +1 x5 +1 x18 +1 x38 +1 x46 +1 x62 +1 x72 +1 x76 +1 x83 +1 x87 +1 x105 +1 x112 +1 x122 +1 x156 +1 x170
  +1 x186 >= +1
 c194: +1 x7 +1 x16 +1 x20 +1 x33 +1 x36 +1 x37 +1 x39 +1 x40 +1 x52 +1 x67 +1 x83 +1 x93 +1 x98 +1 x99
  +1 x108 +1 x113 +1 x116 +1 x122 +1 x129 +1 x131 +1 x147 +1 x148 +1 x177 +1 x181 +1 x196 >= +1
 c195: +1 x9 +1 x22 +1 x33 +1 x39 +1 x41 +1 x59 +1 x61 +1 x63 +1 x78 +1 x91 +1 x94 +1 x113 +1 x114 +1 x124
  +1 x144 +1 x157 +1 x158 +1 x164 +1 x165 +1 x179 +1 x190 >= +1
 c196: +1 x3 +1 x26 +1 x37 +1 x62 +1 x63 +1 x65 +1 x71 +1 x77 +1 x78 +1 x79 +1 x88 +1 x96 +1 x127 +1 x136
  +1 x142 +1 x167 +1 x172 +1 x192 >= +1
 c197: +1 x4 +1 x15 +1 x57 +1 x62 +1 x70 +1 x78 +1 x81 +1 x83 +1 x92 +1 x105 +1 x107 +1 x109 +1 x110 +1 x111
  +1 x117 +1 x156 +1 x165 +1 x199 >= +1
 c198: +1 x6 +1 x12 +1 x26 +1 x27 +1 x50 +1 x53 +1 x62 +1 x64 +1 x67 +1 x69 +1 x76 +1 x79 +1 x83 +1 x98
  +1 x108 +1 x111 +1 x138 +1 x150 +1 x155 +1 x156 +1 x163 +1 x190 +1 x196 >= +1
 c199: +1 x3 +1 x20 +1 x31 +1 x49 +1 x51 +1 x54 +1 x55 +1 x59 +1 x62 +1 x67 +1 x85 +1 x87 +1 x88 +1 x96
  +1 x97 +1 x103 +1 x104 +1 x131 +1 x143 +1 x155 +1 x156 +1 x159 +1 x177 >= +1
Bounds
 0 <= x0 <= 1
 0 <= x1 <= 1
 0 <= x2 <= 1
 0 <= x3 <= 1
 0 <= x4 <= 1
 0 <= x5 <= 1
 0 <= x6 <= 1
 0 <= x7 <= 1
 0 <= x8 <= 1
 0 <= x9 <= 1
 0 <= x10 <= 1
 0 <= x11 <= 1
 0 <= x12 <= 1
 0 <= x13 <= 1
 0 <= x14 <= 1
 0 <= x15 <= 1
 0 <= x16 <= 1
 0 <= x17 <= 1
 0 <= x18 <= 1
 0 <= x19 <= 1
 0 <= x20 <= 1
 0 <= x21 <= 1
 0 <= x22 <= 1
 0 <= x23 <= 1
 0 <= x24 <= 1
 0 <= x25 <= 1
 0 <= x26 <= 1
 0 <= x27 <= 1
 0 <= x28 <= 1
 0 <= x29 <= 1
 0 <= x30 <= 1
 0 <= x31 <= 1
 0 <= x32 <= 1
 0 <= x33 <= 1
 0 <= x34 <= 1
 0 <= x35 <= 1
 0 <= x36 <= 1
 0 <= x37 <= 1
 0 <= x38 <= 1
 0 <= x39 <= 1
 0 <= x40 <= 1
 0 <= x41 <= 1
 0 <= x42 <= 1
 0 <= x43 <= 1
 0 <= x44 <= 1
 0 <= x45 <= 1
 0 <= x46 <= 1
 0 <= x47 <= 1
 0 <= x48 <= 1
 0 <= x49 <= 1
 0 <= x50 <= 1
 0 <= x51 <= 1
 0 <= x52 <= 1
 0 <= x53 <= 1
 0 <= x54 <= 1
 0 <= x55 <= 1
 0 <= x56 <= 1
 0 <= x57 <= 1
 0 <= x58 <= 1
 0 <= x59 <= 1
 0 <= x60 <= 1
 0 <= x61 <= 1
 0 <= x62 <= 1
 0 <= x63 <= 1
 0 <= x64 <= 1
 0 <= x65 <= 1
 0 <= x66 <= 1
 0 <= x67 <= 1
 0 <= x68 <= 1
 0 <= x69 <= 1
 0 <= x70 <= 1
 0 <= x71 <= 1
 0 <= x72 <= 1
 0 <= x73 <= 1
 0 <= x74 <= 1
 0 <= x75 <= 1
 0 <= x76 <= 1
 0 <= x77 <= 1
 0 <= x78 <= 1
 0 <= x79 <= 1
 0 <= x80 <= 1
 0 <= x81 <= 1
 0 <= x82 <= 1
 0 <= x83 <= 1
 0 <= x84 <= 1
 0 <= x85 <= 1
 0 <= x86 <= 1
 0 <= x87 <= 1
 0 <= x88 <= 1
 0 <= x89 <= 1
 0 <= x90 <= 1
 0 <= x91 <= 1
 0 <= x92 <= 1
 0 <= x93 <= 1
 0 <= x94 <= 1
 0 <= x95 <= 1
 0 <= x96 <= 1
 0 <= x97 <= 1
 0 <= x98 <= 1
 0 <= x99 <= 1
 0 <= x100 <= 1
 0 <= x101 <= 1
 0 <= x102 <= 1
 0 <= x103 <= 1
 0 <= x104 <= 1
 0 <= x105 <= 1
 0 <= x106 <= 1
 0 <= x107 <= 1
 0 <= x108 <= 1
 0 <= x109 <= 1
 0 <= x110 <= 1
 0 <= x111 <= 1
 0 <= x112 <= 1
 0 <= x113 <= 1
 0 <= x114 <= 1
 0 <= x115 <= 1
 0 <= x116 <= 1
 0 <= x117 <= 1
 0 <= x118 <= 1
 0 <= x119 <= 1
 0 <= x120 <= 1
 0 <= x121 <= 1
 0 <= x122 <= 1
 0 <= x123 <= 1
 0 <= x124 <= 1
 0 <= x125 <= 1
 0 <= x126 <= 1
 0 <= x127 <= 1
 0 <= x128 <= 1
 0 <= x129 <= 1
 0 <= x130 <= 1
 0 <= x131 <= 1
 0 <= x132 <= 1
 0 <= x133 <= 1
 0 <= x134 <= 1
 0 <= x135 <= 1
 0 <= x136 <= 1
 0 <= x137 <= 1
 0 <= x138 <= 1
 0 <= x139 <= 1
 0 <= x140 <= 1
 0 <= x141 <= 1
 0 <= x142 <= 1
 0 <= x143 <= 1
 0 <= x144 <= 1
 0 <= x145 <= 1
 0 <= x146 <= 1
 0 <= x147 <= 1
 0 <= x148 <= 1
 0 <= x149 <= 1
 0 <= x150 <= 1
 0 <= x151 <= 1
 0 <= x152 <= 1
 0 <= x153 <= 1
 0 <= x154 <= 1
 0 <= x155 <= 1
 0 <= x156 <= 1
 0 <= x157 <= 1
 0 <= x158 <= 1
 0 <= x159 <= 1
 0 <= x160 <= 1
 0 <= x161 <= 1
 0 <= x162 <= 1
 0 <= x163 <= 1
 0 <= x164 <= 1
 0 <= x165 <= 1
 0 <= x166 <= 1
 0 <= x167 <= 1
 0 <= x168 <= 1
 0 <= x169 <= 1
 0 <= x170 <= 1
 0 <= x171 <= 1
 0 <= x172 <= 1
 0 <= x173 <= 1
 0 <= x174 <= 1
 0 <= x175 <= 1
 0 <= x176 <= 1
 0 <= x177 <= 1
 0 <= x178 <= 1
 0 <= x179 <= 1
 0 <= x180 <= 1
 0 <= x181 <= 1
 0 <= x182 <= 1
 0 <= x183 <= 1
 0 <= x184 <= 1
 0 <= x185 <= 1
 0 <= x186 <= 1
 0 <= x187 <= 1
 0 <= x188 <= 1
 0 <= x189 <= 1
 0 <= x190 <= 1
 0 <= x191 <= 1
 0 <= x192 <= 1
 0 <= x193 <= 1
 0 <= x194 <= 1
 0 <= x195 <= 1
 0 <= x196 <= 1
 0 <= x197 <= 1
 0 <= x198 <= 1
 0 <= x199 <= 1
Binaries
 x0 x1 x2 x3 x4 x5 x6 x7 x8 x9 x10 x11 x12 x13 x14 x15 x16 x17 x18 x19 x20 x21 x22 x23 x24 x25 x26 x27
 x28 x29 x30 x31 x32 x33 x34 x35 x36 x37 x38 x39 x40 x41 x42 x43 x44 x45 x46 x47 x48 x49 x50 x51 x52 x53
 x54 x55 x56 x57 x58 x59 x60 x61 x62 x63 x64 x65 x66 x67 x68 x69 x70 x71 x72 x73 x74 x75 x76 x77 x78 x79
 x80 x81 x82 x83 x84 x85 x86 x87 x88 x89 x90 x91 x92 x93 x94 x95 x96 x97 x98 x99 x100 x101 x102 x103 x104
 x105 x106 x107 x108 x109 x110 x111 x112 x113 x114 x115 x116 x117 x118 x119 x120 x121 x122 x123 x124 x125
 x126 x127 x128 x129 x130 x131 x132 x133 x134 x135 x136 x137 x138 x139 x140 x141 x142 x143 x144 x145 x146
 x147 x148 x149 x150 x151 x152 x153 x154 x155 x156 x157 x158 x159 x160 x161 x162 x163 x164 x165 x166 x167
 x168 x169 x170 x171 x172 x173 x174 x175 x176 x177 x178 x179 x180 x181 x182 x183 x184 x185 x186 x187 x188
 x189 x190 x191 x192 x193 x194 x195 x196 x197 x198 x199
End
